networks/zoo_220_11990/zoo_220_11990-lower.txt
Number of groups: 110
Flow 1: {1 36 0} {36 76 0} {76 37 0} {40 2 0} {2 112 0} 
Flow 2: {1 104 0} {104 103 0} {3 113 0} 
Flow 2: {47 22 0} {22 12 0} {103 35 0} Flow 3: {50 4 0} {4 114 0} 
Flow 3: {35 47 0} {47 48 0} Flow 4: {2 66 0} {66 68 0} {68 46 0} {34 6 0} {6 5 0} {5 115 0} 
Flow 4: {37 40 0} Flow 5: {6 116 0} 
Flow 5: {46 34 0} Flow 6: {7 117 0} 
Flow 6: {8 20 0} Flow 7: {40 10 0} {10 9 0} {9 8 0} {8 118 0} 
Flow 8: {9 119 0} 
Flow 9: {10 120 0} 
Flow 10: {62 38 0} {38 11 0} {11 121 0} 
Flow 10: {105 14 0} {14 62 0} {35 105 0} Flow 11: {12 122 0} 
Flow 12: {28 13 0} {13 123 0} 
Flow 12: {48 19 0} {19 28 0} Flow 13: {14 124 0} 
Flow 14: {54 45 0} {45 15 0} {15 125 0} 
Flow 14: {36 54 0} Flow 15: {45 16 0} {16 126 0} 
Flow 16: {12 73 0} {73 17 0} {17 127 0} 
Flow 17: {11 18 0} {18 128 0} 
Flow 18: {19 129 0} 
Flow 19: {20 130 0} 
Flow 20: {21 131 0} 
Flow 21: {22 132 0} 
Flow 22: {11 23 0} {23 133 0} 
Flow 23: {18 24 0} {24 134 0} 
Flow 24: {28 25 0} {25 135 0} 
Flow 25: {13 53 0} {53 26 0} {26 136 0} 
Flow 26: {19 27 0} {27 137 0} 
Flow 27: {28 138 0} 
Flow 28: {26 29 0} {29 139 0} 
Flow 29: {17 57 0} {57 78 0} {78 30 0} {30 140 0} 
Flow 30: {4 102 0} {85 31 0} {31 141 0} 
Flow 30: {53 39 0} {39 50 0} Flow 31: {32 142 0} 
Flow 32: {33 143 0} 
Flow 33: {34 144 0} 
Flow 34: {35 145 0} 
Flow 35: {36 146 0} 
Flow 36: {37 147 0} 
Flow 37: {38 148 0} 
Flow 38: {39 149 0} 
Flow 39: {40 150 0} 
Flow 40: {34 33 0} {82 41 0} {41 151 0} 
Flow 40: {44 82 0} Flow 41: {33 44 0} {44 43 0} {69 42 0} {42 152 0} 
Flow 41: {43 69 0} Flow 42: {43 153 0} 
Flow 43: {44 154 0} 
Flow 44: {45 155 0} 
Flow 45: {46 156 0} 
Flow 46: {47 157 0} 
Flow 47: {48 158 0} 
Flow 48: {39 49 0} {49 159 0} 
Flow 49: {50 160 0} 
Flow 50: {52 51 0} {51 161 0} 
Flow 51: {17 90 0} {90 52 0} {52 162 0} 
Flow 52: {53 163 0} 
Flow 53: {54 164 0} 
Flow 54: {39 55 0} {55 165 0} 
Flow 55: {93 56 0} {56 166 0} 
Flow 55: {57 58 0} {58 93 0} Flow 56: {57 167 0} 
Flow 57: {58 168 0} 
Flow 58: {38 59 0} {59 169 0} 
Flow 59: {54 60 0} {60 170 0} 
Flow 60: {45 61 0} {61 171 0} 
Flow 61: {62 172 0} 
Flow 62: {42 63 0} {63 173 0} 
Flow 63: {50 71 0} {71 64 0} {64 174 0} 
Flow 64: {9 65 0} {65 175 0} 
Flow 65: {66 176 0} 
Flow 66: {33 67 0} {67 177 0} 
Flow 67: {68 178 0} 
Flow 68: {69 179 0} 
Flow 69: {44 70 0} {70 180 0} 
Flow 70: {71 181 0} 
Flow 71: {41 72 0} {72 182 0} 
Flow 72: {73 183 0} 
Flow 73: {48 74 0} {74 184 0} 
Flow 74: {46 75 0} {75 185 0} 
Flow 75: {76 186 0} 
Flow 76: {52 89 0} {89 77 0} {77 187 0} 
Flow 77: {78 188 0} 
Flow 78: {44 79 0} {79 189 0} 
Flow 79: {44 80 0} {80 190 0} 
Flow 80: {79 81 0} {81 191 0} 
Flow 81: {82 192 0} 
Flow 82: {11 83 0} {83 193 0} 
Flow 83: {11 84 0} {84 194 0} 
Flow 84: {102 85 0} {85 195 0} 
Flow 85: {31 86 0} {86 196 0} 
Flow 86: {51 96 0} {96 87 0} {87 197 0} 
Flow 87: {77 88 0} {88 198 0} 
Flow 88: {89 199 0} 
Flow 89: {90 200 0} 
Flow 90: {102 92 0} {92 91 0} {91 201 0} 
Flow 91: {92 202 0} 
Flow 92: {93 203 0} 
Flow 93: {52 94 0} {94 204 0} 
Flow 94: {87 95 0} {95 205 0} 
Flow 95: {96 206 0} 
Flow 96: {58 97 0} {97 207 0} 
Flow 97: {58 98 0} {98 208 0} 
Flow 98: {64 99 0} {99 209 0} 
Flow 99: {31 100 0} {100 210 0} 
Flow 100: {31 101 0} {101 211 0} 
Flow 101: {102 212 0} 
Flow 102: {103 213 0} 
Flow 103: {104 214 0} 
Flow 104: {105 215 0} 
Flow 105: {14 106 0} {106 216 0} 
Flow 106: {106 107 0} {107 217 0} 
Flow 107: {107 108 0} {108 218 0} 
Flow 108: {95 109 0} {109 219 0} 
Flow 109: {67 110 0} {110 220 0} 
Flow 110: {76 36 0} {36 1 0} {1 111 0} 
Flow 110: {2 40 0} {37 76 0} Flow 111: {4 3 0} {5 49 0} {49 50 0} Flow 119: {73 21 0} Flow 120: {8 19 0} {74 12 0} Flow 122: {19 48 0} Flow 123: {40 37 0} {37 54 0} Flow 125: {28 17 0} Flow 126: {17 73 0} {21 32 0} {32 11 0} Flow 130: {48 47 0} Flow 132: {32 24 0} Flow 134: {20 13 0} Flow 143: {47 35 0} Flow 146: {11 38 0} Flow 147: {49 39 0} Flow 164: {55 56 0} Flow 167: {12 107 0} {108 59 0} Flow 173: {46 65 0} Flow 214: {107 106 0} Flow 219: {3 4 0} {4 50 0} {13 27 0} {27 19 0} {35 103 0} {103 104 0} {104 1 0} Flow 220: {50 49 0} {49 5 0} {5 6 0} {6 34 0} {34 46 0} {46 68 0} {68 66 0} {66 2 0} Flow 224: {20 7 0} {50 39 0} {39 53 0} {53 13 0} Flow 225: {13 20 0} Flow 226: {20 8 0} Flow 227: {8 9 0} Flow 229: {3 56 0} {56 93 0} {93 58 0} {58 57 0} {57 17 0} {73 12 0} Flow 231: {106 14 0} Flow 232: {9 10 0} Flow 233: {10 40 0} Flow 239: {12 22 0} Flow 242: {17 25 0} Flow 248: {3 102 0} Flow 258: {64 72 0} {72 41 0} Flow 259: {72 42 0} {85 64 0} Flow 260: {41 69 0} {69 43 0} Flow 261: {41 82 0} {82 44 0} Flow 268: {58 51 0} Flow 269: {51 52 0} Flow 272: {56 55 0} Flow 282: {8 65 0} Flow 291: {12 74 0} Flow 292: {33 75 0} Flow 296: {41 81 0} {81 79 0} Flow 297: {43 80 0} Flow 307: {52 90 0} Flow 311: {51 94 0} Flow 327: {43 110 0} Flow 351: {13 28 0} Flow 356: {29 30 0} Flow 437: {65 9 0} Flow 442: {34 7 0} Flow 455: {7 20 0} Flow 513: {30 78 0} Flow 657: {7 34 0} Flow 768: {65 46 0} Flow 1091: {62 14 0} {14 105 0} {105 35 0} {38 62 0} Flow 1092: {11 32 0} Flow 1093: {32 21 0} {21 73 0} {56 3 0} Flow 1094: {17 28 0} Flow 1098: {28 19 0} {19 8 0} Flow 1118: {30 29 0} Flow 1137: {74 48 0} Flow 1196: {59 108 0} {108 107 0} Flow 1200: {22 47 0} Flow 1236: {59 38 0} Flow 1420: {107 12 0} Flow 1527: {15 45 0} {45 54 0} {54 36 0} Flow 1528: {54 37 0} Flow 1541: {15 16 0} Flow 1585: {61 60 0} Flow 1636: {16 45 0} Flow 1650: {16 15 0} Flow 1854: {18 11 0} Flow 2399: {23 11 0} Flow 2508: {24 18 0} Flow 2509: {24 32 0} Flow 2617: {25 28 0} Flow 2619: {25 17 0} Flow 2726: {26 53 0} Flow 2775: {78 57 0} Flow 2837: {27 13 0} Flow 3053: {29 26 0} Flow 3271: {31 85 0} Flow 3272: {64 71 0} {71 50 0} Flow 3273: {85 102 0} {102 3 0} Flow 3274: {102 4 0} Flow 3336: {110 67 0} Flow 3344: {44 33 0} Flow 3360: {86 91 0} Flow 3490: {33 34 0} Flow 3519: {72 64 0} {64 85 0} Flow 4401: {41 42 0} Flow 4470: {42 41 0} Flow 4472: {42 72 0} Flow 4511: {42 69 0} Flow 4579: {43 44 0} Flow 4581: {69 41 0} Flow 4913: {65 8 0} Flow 5452: {51 58 0} Flow 5455: {55 39 0} Flow 5560: {90 17 0} Flow 6432: {60 54 0} Flow 6491: {60 61 0} Flow 6541: {61 45 0} Flow 6759: {63 42 0} Flow 7195: {67 33 0} Flow 7236: {110 43 0} Flow 7263: {110 70 0} Flow 7522: {70 44 0} Flow 7588: {70 110 0} Flow 8067: {75 46 0} Flow 8069: {75 33 0} Flow 8285: {77 89 0} {89 52 0} Flow 8370: {88 95 0} {95 87 0} Flow 8503: {79 44 0} Flow 8505: {81 41 0} Flow 8612: {80 44 0} Flow 8614: {80 43 0} Flow 8939: {83 11 0} Flow 9021: {83 84 0} Flow 9048: {84 11 0} Flow 9130: {84 83 0} Flow 9266: {86 31 0} Flow 9356: {91 92 0} Flow 9375: {87 96 0} {96 51 0} Flow 9451: {95 88 0} {88 77 0} Flow 9811: {92 102 0} Flow 9841: {91 86 0} Flow 10138: {94 52 0} Flow 10140: {94 51 0} Flow 10465: {97 58 0} Flow 10574: {98 58 0} Flow 10683: {99 64 0} Flow 10792: {100 31 0} Flow 10901: {101 31 0} Flow 11773: {109 95 0} Time taken running everything: 1 seconds
