networks/zoo_220_11990/zoo_220_11990-lower.sol
<?xml version = "1.0" encoding="UTF-8" standalone="yes"?>
<CPLEXSolution version="1.2">
 <header
   problemName="networks/zoo_220_11990/zoo_220_11990-lower.lp"
   solutionName="incumbent"
   solutionIndex="-1"
   objectiveValue="110"
   solutionTypeValue="3"
   solutionTypeString="primal"
   solutionStatusValue="101"
   solutionStatusString="integer optimal solution"
   solutionMethodString="mip"
   primalFeasible="1"
   dualFeasible="1"
   MIPNodes="0"
   MIPIterations="0"
   writeLevel="3"/>
 <quality
   epInt="1.0000000000000001e-05"
   epRHS="9.9999999999999995e-07"
   maxIntInfeas="0"
   maxPrimalInfeas="0"
   maxX="1"
   maxSlack="1"/>
 <variables>
  <variable name="Y(1,2)" index="1" value="1"/>
  <variable name="Y(2,3)" index="222" value="1"/>
  <variable name="Y(3,4)" index="443" value="1"/>
  <variable name="Y(4,5)" index="664" value="1"/>
  <variable name="Y(5,6)" index="885" value="1"/>
  <variable name="Y(6,7)" index="1106" value="1"/>
  <variable name="Y(7,8)" index="1327" value="1"/>
  <variable name="Y(8,9)" index="1548" value="1"/>
  <variable name="Y(9,10)" index="1769" value="1"/>
  <variable name="Y(10,11)" index="1990" value="1"/>
  <variable name="Y(11,12)" index="2211" value="1"/>
  <variable name="Y(12,13)" index="2432" value="1"/>
  <variable name="Y(13,14)" index="2653" value="1"/>
  <variable name="Y(14,15)" index="2874" value="1"/>
  <variable name="Y(15,16)" index="3095" value="1"/>
  <variable name="Y(16,17)" index="3316" value="1"/>
  <variable name="Y(17,18)" index="3537" value="1"/>
  <variable name="Y(18,19)" index="3758" value="1"/>
  <variable name="Y(19,20)" index="3979" value="1"/>
  <variable name="Y(20,21)" index="4200" value="1"/>
  <variable name="Y(21,22)" index="4421" value="1"/>
  <variable name="Y(22,23)" index="4642" value="1"/>
  <variable name="Y(23,24)" index="4863" value="1"/>
  <variable name="Y(24,25)" index="5084" value="1"/>
  <variable name="Y(25,26)" index="5305" value="1"/>
  <variable name="Y(26,27)" index="5526" value="1"/>
  <variable name="Y(27,28)" index="5747" value="1"/>
  <variable name="Y(28,29)" index="5968" value="1"/>
  <variable name="Y(29,30)" index="6189" value="1"/>
  <variable name="Y(30,31)" index="6410" value="1"/>
  <variable name="Y(31,32)" index="6631" value="1"/>
  <variable name="Y(32,33)" index="6852" value="1"/>
  <variable name="Y(33,34)" index="7073" value="1"/>
  <variable name="Y(34,35)" index="7294" value="1"/>
  <variable name="Y(35,36)" index="7515" value="1"/>
  <variable name="Y(36,37)" index="7736" value="1"/>
  <variable name="Y(37,38)" index="7957" value="1"/>
  <variable name="Y(38,39)" index="8178" value="1"/>
  <variable name="Y(39,40)" index="8399" value="1"/>
  <variable name="Y(40,41)" index="8620" value="1"/>
  <variable name="Y(41,42)" index="8841" value="1"/>
  <variable name="Y(42,43)" index="9062" value="1"/>
  <variable name="Y(43,44)" index="9283" value="1"/>
  <variable name="Y(44,45)" index="9504" value="1"/>
  <variable name="Y(45,46)" index="9725" value="1"/>
  <variable name="Y(46,47)" index="9946" value="1"/>
  <variable name="Y(47,48)" index="10167" value="1"/>
  <variable name="Y(48,49)" index="10388" value="1"/>
  <variable name="Y(49,50)" index="10609" value="1"/>
  <variable name="Y(50,51)" index="10830" value="1"/>
  <variable name="Y(51,52)" index="11051" value="1"/>
  <variable name="Y(52,53)" index="11272" value="1"/>
  <variable name="Y(53,54)" index="11493" value="1"/>
  <variable name="Y(54,55)" index="11714" value="1"/>
  <variable name="Y(55,56)" index="11935" value="1"/>
  <variable name="Y(56,57)" index="12156" value="1"/>
  <variable name="Y(57,58)" index="12377" value="1"/>
  <variable name="Y(58,59)" index="12598" value="1"/>
  <variable name="Y(59,60)" index="12819" value="1"/>
  <variable name="Y(60,61)" index="13040" value="1"/>
  <variable name="Y(61,62)" index="13261" value="1"/>
  <variable name="Y(62,63)" index="13482" value="1"/>
  <variable name="Y(63,64)" index="13703" value="1"/>
  <variable name="Y(64,65)" index="13924" value="1"/>
  <variable name="Y(65,66)" index="14145" value="1"/>
  <variable name="Y(66,67)" index="14366" value="1"/>
  <variable name="Y(67,68)" index="14587" value="1"/>
  <variable name="Y(68,69)" index="14808" value="1"/>
  <variable name="Y(69,70)" index="15029" value="1"/>
  <variable name="Y(70,71)" index="15250" value="1"/>
  <variable name="Y(71,72)" index="15471" value="1"/>
  <variable name="Y(72,73)" index="15692" value="1"/>
  <variable name="Y(73,74)" index="15913" value="1"/>
  <variable name="Y(74,75)" index="16134" value="1"/>
  <variable name="Y(75,76)" index="16355" value="1"/>
  <variable name="Y(76,77)" index="16576" value="1"/>
  <variable name="Y(77,78)" index="16797" value="1"/>
  <variable name="Y(78,79)" index="17018" value="1"/>
  <variable name="Y(79,80)" index="17239" value="1"/>
  <variable name="Y(80,81)" index="17460" value="1"/>
  <variable name="Y(81,82)" index="17681" value="1"/>
  <variable name="Y(82,83)" index="17902" value="1"/>
  <variable name="Y(83,84)" index="18123" value="1"/>
  <variable name="Y(84,85)" index="18344" value="1"/>
  <variable name="Y(85,86)" index="18565" value="1"/>
  <variable name="Y(86,87)" index="18786" value="1"/>
  <variable name="Y(87,88)" index="19007" value="1"/>
  <variable name="Y(88,89)" index="19228" value="1"/>
  <variable name="Y(89,90)" index="19449" value="1"/>
  <variable name="Y(90,91)" index="19670" value="1"/>
  <variable name="Y(91,92)" index="19891" value="1"/>
  <variable name="Y(92,93)" index="20112" value="1"/>
  <variable name="Y(93,94)" index="20333" value="1"/>
  <variable name="Y(94,95)" index="20554" value="1"/>
  <variable name="Y(95,96)" index="20775" value="1"/>
  <variable name="Y(96,97)" index="20996" value="1"/>
  <variable name="Y(97,98)" index="21217" value="1"/>
  <variable name="Y(98,99)" index="21438" value="1"/>
  <variable name="Y(99,100)" index="21659" value="1"/>
  <variable name="Y(100,101)" index="21880" value="1"/>
  <variable name="Y(101,102)" index="22101" value="1"/>
  <variable name="Y(102,103)" index="22322" value="1"/>
  <variable name="Y(103,104)" index="22543" value="1"/>
  <variable name="Y(104,105)" index="22764" value="1"/>
  <variable name="Y(105,106)" index="22985" value="1"/>
  <variable name="Y(106,107)" index="23206" value="1"/>
  <variable name="Y(107,108)" index="23427" value="1"/>
  <variable name="Y(108,109)" index="23648" value="1"/>
  <variable name="Y(109,110)" index="23869" value="1"/>
  <variable name="Y(110,1)" index="23980" value="1"/>
  <variable name="X(1,36,1)" index="2637800" value="1"/>
  <variable name="X(1,104,2)" index="2649791" value="1"/>
  <variable name="X(1,111,110)" index="2661889" value="1"/>
  <variable name="X(2,40,110)" index="2673879" value="1"/>
  <variable name="X(2,66,4)" index="2685763" value="1"/>
  <variable name="X(2,112,1)" index="2697750" value="1"/>
  <variable name="X(3,4,219)" index="2709958" value="1"/>
  <variable name="X(3,56,229)" index="2721958" value="1"/>
  <variable name="X(3,102,248)" index="2733967" value="1"/>
  <variable name="X(3,113,2)" index="2745711" value="1"/>
  <variable name="X(4,3,111)" index="2757810" value="1"/>
  <variable name="X(4,50,219)" index="2769908" value="1"/>
  <variable name="X(4,102,30)" index="2781709" value="1"/>
  <variable name="X(4,114,3)" index="2793672" value="1"/>
  <variable name="X(5,6,220)" index="2805879" value="1"/>
  <variable name="X(5,49,111)" index="2817760" value="1"/>
  <variable name="X(5,115,4)" index="2829643" value="1"/>
  <variable name="X(6,5,4)" index="2841633" value="1"/>
  <variable name="X(6,34,220)" index="2853839" value="1"/>
  <variable name="X(6,116,5)" index="2865614" value="1"/>
  <variable name="X(7,20,455)" index="2878054" value="1"/>
  <variable name="X(7,34,657)" index="2890246" value="1"/>
  <variable name="X(7,117,6)" index="2901585" value="1"/>
  <variable name="X(8,9,227)" index="2913796" value="1"/>
  <variable name="X(8,19,120)" index="2925679" value="1"/>
  <variable name="X(8,20,6)" index="2937555" value="1"/>
  <variable name="X(8,65,282)" index="2949821" value="1"/>
  <variable name="X(8,118,7)" index="2961536" value="1"/>
  <variable name="X(9,8,7)" index="2973526" value="1"/>
  <variable name="X(9,10,232)" index="2985741" value="1"/>
  <variable name="X(9,65,64)" index="2997563" value="1"/>
  <variable name="X(9,119,8)" index="3009497" value="1"/>
  <variable name="X(10,9,7)" index="3021486" value="1"/>
  <variable name="X(10,40,233)" index="3033702" value="1"/>
  <variable name="X(10,120,9)" index="3045468" value="1"/>
  <variable name="X(11,18,17)" index="3057466" value="1"/>
  <variable name="X(11,23,22)" index="3069461" value="1"/>
  <variable name="X(11,32,1092)" index="3082521" value="1"/>
  <variable name="X(11,38,146)" index="3093565" value="1"/>
  <variable name="X(11,83,82)" index="3105491" value="1"/>
  <variable name="X(11,84,83)" index="3117482" value="1"/>
  <variable name="X(11,121,10)" index="3129399" value="1"/>
  <variable name="X(12,22,239)" index="3141618" value="1"/>
  <variable name="X(12,73,16)" index="3153385" value="1"/>
  <variable name="X(12,74,291)" index="3165650" value="1"/>
  <variable name="X(12,107,167)" index="3177516" value="1"/>
  <variable name="X(12,122,11)" index="3189350" value="1"/>
  <variable name="X(13,20,225)" index="3201554" value="1"/>
  <variable name="X(13,27,219)" index="3213538" value="1"/>
  <variable name="X(13,28,351)" index="3225660" value="1"/>
  <variable name="X(13,53,25)" index="3237324" value="1"/>
  <variable name="X(13,123,12)" index="3249301" value="1"/>
  <variable name="X(14,62,10)" index="3261289" value="1"/>
  <variable name="X(14,105,1091)" index="3274360" value="1"/>
  <variable name="X(14,106,105)" index="3285364" value="1"/>
  <variable name="X(14,124,13)" index="3297262" value="1"/>
  <variable name="X(15,16,1541)" index="3310780" value="1"/>
  <variable name="X(15,45,1527)" index="3322756" value="1"/>
  <variable name="X(15,125,14)" index="3333233" value="1"/>
  <variable name="X(16,15,1650)" index="3346859" value="1"/>
  <variable name="X(16,45,1636)" index="3358835" value="1"/>
  <variable name="X(16,126,15)" index="3369204" value="1"/>
  <variable name="X(17,25,242)" index="3381421" value="1"/>
  <variable name="X(17,28,1094)" index="3394263" value="1"/>
  <variable name="X(17,57,29)" index="3405188" value="1"/>
  <variable name="X(17,73,126)" index="3417275" value="1"/>
  <variable name="X(17,90,51)" index="3429190" value="1"/>
  <variable name="X(17,127,16)" index="3441145" value="1"/>
  <variable name="X(18,11,1854)" index="3454973" value="1"/>
  <variable name="X(18,24,23)" index="3465132" value="1"/>
  <variable name="X(18,128,17)" index="3477116" value="1"/>
  <variable name="X(19,8,1098)" index="3490187" value="1"/>
  <variable name="X(19,27,26)" index="3501105" value="1"/>
  <variable name="X(19,28,12)" index="3513081" value="1"/>
  <variable name="X(19,48,122)" index="3525181" value="1"/>
  <variable name="X(19,129,18)" index="3537067" value="1"/>
  <variable name="X(20,7,224)" index="3549263" value="1"/>
  <variable name="X(20,8,226)" index="3561255" value="1"/>
  <variable name="X(20,13,134)" index="3573153" value="1"/>
  <variable name="X(20,130,19)" index="3585028" value="1"/>
  <variable name="X(21,32,126)" index="3597125" value="1"/>
  <variable name="X(21,73,1093)" index="3610082" value="1"/>
  <variable name="X(21,131,20)" index="3620999" value="1"/>
  <variable name="X(22,12,2)" index="3632971" value="1"/>
  <variable name="X(22,47,1200)" index="3646159" value="1"/>
  <variable name="X(22,132,21)" index="3656970" value="1"/>
  <variable name="X(23,11,2399)" index="3671338" value="1"/>
  <variable name="X(23,133,22)" index="3680951" value="1"/>
  <variable name="X(24,18,2508)" index="3695427" value="1"/>
  <variable name="X(24,32,2509)" index="3707418" value="1"/>
  <variable name="X(24,134,23)" index="3716922" value="1"/>
  <variable name="X(25,17,2619)" index="3731508" value="1"/>
  <variable name="X(25,28,2617)" index="3743496" value="1"/>
  <variable name="X(25,135,24)" index="3752893" value="1"/>
  <variable name="X(26,29,28)" index="3764887" value="1"/>
  <variable name="X(26,53,2726)" index="3779575" value="1"/>
  <variable name="X(26,136,25)" index="3788864" value="1"/>
  <variable name="X(27,13,2837)" index="3803666" value="1"/>
  <variable name="X(27,19,219)" index="3813038" value="1"/>
  <variable name="X(27,137,26)" index="3824835" value="1"/>
  <variable name="X(28,13,12)" index="3836811" value="1"/>
  <variable name="X(28,17,125)" index="3848914" value="1"/>
  <variable name="X(28,19,1098)" index="3861877" value="1"/>
  <variable name="X(28,25,24)" index="3872793" value="1"/>
  <variable name="X(28,138,27)" index="3884786" value="1"/>
  <variable name="X(29,26,3053)" index="3899802" value="1"/>
  <variable name="X(29,30,356)" index="3909095" value="1"/>
  <variable name="X(29,139,28)" index="3920757" value="1"/>
  <variable name="X(30,29,1118)" index="3933837" value="1"/>
  <variable name="X(30,78,513)" index="3945222" value="1"/>
  <variable name="X(30,140,29)" index="3956728" value="1"/>
  <variable name="X(31,85,3271)" index="3971960" value="1"/>
  <variable name="X(31,86,85)" index="3980764" value="1"/>
  <variable name="X(31,100,99)" index="3992768" value="1"/>
  <variable name="X(31,101,100)" index="4004759" value="1"/>
  <variable name="X(31,141,30)" index="4016679" value="1"/>
  <variable name="X(32,11,126)" index="4028765" value="1"/>
  <variable name="X(32,21,1093)" index="4041722" value="1"/>
  <variable name="X(32,24,132)" index="4052751" value="1"/>
  <variable name="X(32,142,31)" index="4064640" value="1"/>
  <variable name="X(33,34,3490)" index="4080089" value="1"/>
  <variable name="X(33,44,41)" index="4088630" value="1"/>
  <variable name="X(33,67,66)" index="4100645" value="1"/>
  <variable name="X(33,75,292)" index="4112861" value="1"/>
  <variable name="X(33,143,32)" index="4124591" value="1"/>
  <variable name="X(34,6,4)" index="4136553" value="1"/>
  <variable name="X(34,7,442)" index="4148981" value="1"/>
  <variable name="X(34,33,40)" index="4160569" value="1"/>
  <variable name="X(34,46,220)" index="4172739" value="1"/>
  <variable name="X(34,144,33)" index="4184542" value="1"/>
  <variable name="X(35,47,3)" index="4196502" value="1"/>
  <variable name="X(35,103,219)" index="4208708" value="1"/>
  <variable name="X(35,105,10)" index="4220489" value="1"/>
  <variable name="X(35,145,34)" index="4232503" value="1"/>
  <variable name="X(36,1,110)" index="4244569" value="1"/>
  <variable name="X(36,54,14)" index="4256463" value="1"/>
  <variable name="X(36,76,1)" index="4268440" value="1"/>
  <variable name="X(36,146,35)" index="4280464" value="1"/>
  <variable name="X(37,40,4)" index="4292423" value="1"/>
  <variable name="X(37,54,123)" index="4304532" value="1"/>
  <variable name="X(37,76,110)" index="4316509" value="1"/>
  <variable name="X(37,147,36)" index="4328425" value="1"/>
  <variable name="X(38,11,10)" index="4340389" value="1"/>
  <variable name="X(38,59,58)" index="4352427" value="1"/>
  <variable name="X(38,62,1091)" index="4365450" value="1"/>
  <variable name="X(38,148,37)" index="4376386" value="1"/>
  <variable name="X(39,49,48)" index="4388387" value="1"/>
  <variable name="X(39,50,30)" index="4400359" value="1"/>
  <variable name="X(39,53,224)" index="4412543" value="1"/>
  <variable name="X(39,55,54)" index="4424363" value="1"/>
  <variable name="X(39,149,38)" index="4436337" value="1"/>
  <variable name="X(40,2,1)" index="4448290" value="1"/>
  <variable name="X(40,10,7)" index="4460286" value="1"/>
  <variable name="X(40,37,123)" index="4472392" value="1"/>
  <variable name="X(40,150,39)" index="4484298" value="1"/>
  <variable name="X(41,42,4401)" index="4500650" value="1"/>
  <variable name="X(41,69,260)" index="4508499" value="1"/>
  <variable name="X(41,72,71)" index="4520300" value="1"/>
  <variable name="X(41,81,296)" index="4532515" value="1"/>
  <variable name="X(41,82,261)" index="4544470" value="1"/>
  <variable name="X(41,151,40)" index="4556239" value="1"/>
  <variable name="X(42,41,4470)" index="4572659" value="1"/>
  <variable name="X(42,63,62)" index="4580241" value="1"/>
  <variable name="X(42,69,4511)" index="4596680" value="1"/>
  <variable name="X(42,72,4472)" index="4608631" value="1"/>
  <variable name="X(42,152,41)" index="4616190" value="1"/>
  <variable name="X(43,44,4579)" index="4632718" value="1"/>
  <variable name="X(43,69,41)" index="4640170" value="1"/>
  <variable name="X(43,80,297)" index="4652416" value="1"/>
  <variable name="X(43,110,327)" index="4664436" value="1"/>
  <variable name="X(43,153,42)" index="4676141" value="1"/>
  <variable name="X(44,33,3344)" index="4691433" value="1"/>
  <variable name="X(44,43,41)" index="4700120" value="1"/>
  <variable name="X(44,70,69)" index="4712138" value="1"/>
  <variable name="X(44,79,78)" index="4724137" value="1"/>
  <variable name="X(44,80,79)" index="4736128" value="1"/>
  <variable name="X(44,82,40)" index="4748079" value="1"/>
  <variable name="X(44,154,43)" index="4760072" value="1"/>
  <variable name="X(45,15,14)" index="4772033" value="1"/>
  <variable name="X(45,16,15)" index="4784024" value="1"/>
  <variable name="X(45,54,1527)" index="4797526" value="1"/>
  <variable name="X(45,61,60)" index="4808049" value="1"/>
  <variable name="X(45,155,44)" index="4820023" value="1"/>
  <variable name="X(46,34,5)" index="4831974" value="1"/>
  <variable name="X(46,65,173)" index="4844132" value="1"/>
  <variable name="X(46,68,220)" index="4856169" value="1"/>
  <variable name="X(46,75,74)" index="4868013" value="1"/>
  <variable name="X(46,156,45)" index="4879974" value="1"/>
  <variable name="X(47,22,2)" index="4891921" value="1"/>
  <variable name="X(47,35,143)" index="4904052" value="1"/>
  <variable name="X(47,48,3)" index="4915902" value="1"/>
  <variable name="X(47,157,46)" index="4927935" value="1"/>
  <variable name="X(48,19,12)" index="4939891" value="1"/>
  <variable name="X(48,47,130)" index="4951999" value="1"/>
  <variable name="X(48,74,73)" index="4963932" value="1"/>
  <variable name="X(48,158,47)" index="4975896" value="1"/>
  <variable name="X(49,5,220)" index="4988059" value="1"/>
  <variable name="X(49,39,147)" index="4999976" value="1"/>
  <variable name="X(49,50,111)" index="5011930" value="1"/>
  <variable name="X(49,159,48)" index="5023857" value="1"/>
  <variable name="X(50,4,3)" index="5035802" value="1"/>
  <variable name="X(50,39,224)" index="5048013" value="1"/>
  <variable name="X(50,49,220)" index="5059999" value="1"/>
  <variable name="X(50,71,63)" index="5071832" value="1"/>
  <variable name="X(50,160,49)" index="5083808" value="1"/>
  <variable name="X(51,52,269)" index="5096018" value="1"/>
  <variable name="X(51,58,5452)" index="5113191" value="1"/>
  <variable name="X(51,94,311)" index="5120040" value="1"/>
  <variable name="X(51,96,86)" index="5131805" value="1"/>
  <variable name="X(51,161,50)" index="5143759" value="1"/>
  <variable name="X(52,51,50)" index="5155749" value="1"/>
  <variable name="X(52,89,76)" index="5167765" value="1"/>
  <variable name="X(52,90,307)" index="5179986" value="1"/>
  <variable name="X(52,94,93)" index="5191762" value="1"/>
  <variable name="X(52,162,51)" index="5203710" value="1"/>
  <variable name="X(53,13,224)" index="5215873" value="1"/>
  <variable name="X(53,26,25)" index="5227664" value="1"/>
  <variable name="X(53,39,30)" index="5239659" value="1"/>
  <variable name="X(53,163,52)" index="5251671" value="1"/>
  <variable name="X(54,36,1527)" index="5265136" value="1"/>
  <variable name="X(54,37,1528)" index="5277127" value="1"/>
  <variable name="X(54,45,14)" index="5287603" value="1"/>
  <variable name="X(54,60,59)" index="5299638" value="1"/>
  <variable name="X(54,164,53)" index="5311622" value="1"/>
  <variable name="X(55,39,5455)" index="5329014" value="1"/>
  <variable name="X(55,56,164)" index="5335713" value="1"/>
  <variable name="X(55,165,54)" index="5347593" value="1"/>
  <variable name="X(56,3,1093)" index="5360622" value="1"/>
  <variable name="X(56,55,272)" index="5371791" value="1"/>
  <variable name="X(56,93,229)" index="5383738" value="1"/>
  <variable name="X(56,166,55)" index="5395554" value="1"/>
  <variable name="X(57,17,229)" index="5407718" value="1"/>
  <variable name="X(57,58,55)" index="5419534" value="1"/>
  <variable name="X(57,78,29)" index="5431498" value="1"/>
  <variable name="X(57,167,56)" index="5443515" value="1"/>
  <variable name="X(58,51,268)" index="5455717" value="1"/>
  <variable name="X(58,57,229)" index="5467668" value="1"/>
  <variable name="X(58,93,55)" index="5479484" value="1"/>
  <variable name="X(58,97,96)" index="5491515" value="1"/>
  <variable name="X(58,98,97)" index="5503506" value="1"/>
  <variable name="X(58,168,57)" index="5515456" value="1"/>
  <variable name="X(59,38,1236)" index="5528625" value="1"/>
  <variable name="X(59,108,1196)" index="5540575" value="1"/>
  <variable name="X(59,169,58)" index="5551427" value="1"/>
  <variable name="X(60,54,6432)" index="5569791" value="1"/>
  <variable name="X(60,61,6491)" index="5581840" value="1"/>
  <variable name="X(60,170,59)" index="5587398" value="1"/>
  <variable name="X(61,45,6541)" index="5605870" value="1"/>
  <variable name="X(61,60,1585)" index="5612904" value="1"/>
  <variable name="X(61,171,60)" index="5623369" value="1"/>
  <variable name="X(62,14,1091)" index="5636390" value="1"/>
  <variable name="X(62,38,10)" index="5647299" value="1"/>
  <variable name="X(62,172,61)" index="5659340" value="1"/>
  <variable name="X(63,42,6759)" index="5678028" value="1"/>
  <variable name="X(63,173,62)" index="5683321" value="1"/>
  <variable name="X(64,71,3272)" index="5698521" value="1"/>
  <variable name="X(64,72,258)" index="5707497" value="1"/>
  <variable name="X(64,85,3519)" index="5722748" value="1"/>
  <variable name="X(64,99,98)" index="5731317" value="1"/>
  <variable name="X(64,174,63)" index="5743272" value="1"/>
  <variable name="X(65,8,4913)" index="5760112" value="1"/>
  <variable name="X(65,9,437)" index="5767626" value="1"/>
  <variable name="X(65,46,768)" index="5779947" value="1"/>
  <variable name="X(65,175,64)" index="5791233" value="1"/>
  <variable name="X(66,2,220)" index="5803379" value="1"/>
  <variable name="X(66,68,4)" index="5815153" value="1"/>
  <variable name="X(66,176,65)" index="5827204" value="1"/>
  <variable name="X(67,33,7195)" index="5846324" value="1"/>
  <variable name="X(67,110,109)" index="5851228" value="1"/>
  <variable name="X(67,177,66)" index="5863175" value="1"/>
  <variable name="X(68,46,4)" index="5875103" value="1"/>
  <variable name="X(68,66,220)" index="5887309" value="1"/>
  <variable name="X(68,178,67)" index="5899146" value="1"/>
  <variable name="X(69,41,4581)" index="5915650" value="1"/>
  <variable name="X(69,42,41)" index="5923100" value="1"/>
  <variable name="X(69,43,260)" index="5935309" value="1"/>
  <variable name="X(69,179,68)" index="5947107" value="1"/>
  <variable name="X(70,44,7522)" index="5966551" value="1"/>
  <variable name="X(70,110,7588)" index="5978607" value="1"/>
  <variable name="X(70,180,69)" index="5983078" value="1"/>
  <variable name="X(71,50,3272)" index="5998271" value="1"/>
  <variable name="X(71,64,63)" index="6007052" value="1"/>
  <variable name="X(71,181,70)" index="6019049" value="1"/>
  <variable name="X(72,41,258)" index="6031227" value="1"/>
  <variable name="X(72,42,259)" index="6043218" value="1"/>
  <variable name="X(72,64,3519)" index="6058468" value="1"/>
  <variable name="X(72,182,71)" index="6067010" value="1"/>
  <variable name="X(73,12,229)" index="6079158" value="1"/>
  <variable name="X(73,17,16)" index="6090935" value="1"/>
  <variable name="X(73,21,119)" index="6103028" value="1"/>
  <variable name="X(73,183,72)" index="6114971" value="1"/>
  <variable name="X(74,12,120)" index="6127009" value="1"/>
  <variable name="X(74,48,1137)" index="6140016" value="1"/>
  <variable name="X(74,184,73)" index="6150942" value="1"/>
  <variable name="X(75,33,8069)" index="6170928" value="1"/>
  <variable name="X(75,46,8067)" index="6182916" value="1"/>
  <variable name="X(75,185,74)" index="6186913" value="1"/>
  <variable name="X(76,36,110)" index="6198939" value="1"/>
  <variable name="X(76,37,1)" index="6210820" value="1"/>
  <variable name="X(76,186,75)" index="6222884" value="1"/>
  <variable name="X(77,88,87)" index="6234886" value="1"/>
  <variable name="X(77,89,8285)" index="6255074" value="1"/>
  <variable name="X(77,187,76)" index="6258855" value="1"/>
  <variable name="X(78,30,29)" index="6270798" value="1"/>
  <variable name="X(78,57,2775)" index="6285534" value="1"/>
  <variable name="X(78,188,77)" index="6294826" value="1"/>
  <variable name="X(79,44,8503)" index="6315242" value="1"/>
  <variable name="X(79,81,80)" index="6318809" value="1"/>
  <variable name="X(79,189,78)" index="6330797" value="1"/>
  <variable name="X(80,43,8614)" index="6351323" value="1"/>
  <variable name="X(80,44,8612)" index="6363311" value="1"/>
  <variable name="X(80,190,79)" index="6366768" value="1"/>
  <variable name="X(81,41,8505)" index="6387184" value="1"/>
  <variable name="X(81,79,296)" index="6390965" value="1"/>
  <variable name="X(81,191,80)" index="6402739" value="1"/>
  <variable name="X(82,41,40)" index="6414689" value="1"/>
  <variable name="X(82,44,261)" index="6426900" value="1"/>
  <variable name="X(82,192,81)" index="6438710" value="1"/>
  <variable name="X(83,11,8939)" index="6459558" value="1"/>
  <variable name="X(83,84,9021)" index="6471630" value="1"/>
  <variable name="X(83,193,82)" index="6474681" value="1"/>
  <variable name="X(84,11,9048)" index="6495637" value="1"/>
  <variable name="X(84,83,9130)" index="6507709" value="1"/>
  <variable name="X(84,194,83)" index="6510652" value="1"/>
  <variable name="X(85,31,30)" index="6522589" value="1"/>
  <variable name="X(85,64,259)" index="6534808" value="1"/>
  <variable name="X(85,102,3273)" index="6549812" value="1"/>
  <variable name="X(85,195,84)" index="6558613" value="1"/>
  <variable name="X(86,31,9266)" index="6579785" value="1"/>
  <variable name="X(86,91,3360)" index="6585869" value="1"/>
  <variable name="X(86,196,85)" index="6594584" value="1"/>
  <variable name="X(87,95,94)" index="6606583" value="1"/>
  <variable name="X(87,96,9375)" index="6627854" value="1"/>
  <variable name="X(87,197,86)" index="6630555" value="1"/>
  <variable name="X(88,77,9451)" index="6651910" value="1"/>
  <variable name="X(88,95,8370)" index="6662819" value="1"/>
  <variable name="X(88,198,87)" index="6666526" value="1"/>
  <variable name="X(89,52,8285)" index="6686714" value="1"/>
  <variable name="X(89,77,76)" index="6690495" value="1"/>
  <variable name="X(89,199,88)" index="6702497" value="1"/>
  <variable name="X(90,17,5560)" index="6719959" value="1"/>
  <variable name="X(90,52,51)" index="6726440" value="1"/>
  <variable name="X(90,200,89)" index="6738468" value="1"/>
  <variable name="X(91,86,9841)" index="6760210" value="1"/>
  <variable name="X(91,92,9356)" index="6771715" value="1"/>
  <variable name="X(91,201,90)" index="6774439" value="1"/>
  <variable name="X(92,91,90)" index="6786429" value="1"/>
  <variable name="X(92,102,9811)" index="6808140" value="1"/>
  <variable name="X(92,202,91)" index="6810410" value="1"/>
  <variable name="X(93,56,55)" index="6822364" value="1"/>
  <variable name="X(93,58,229)" index="6834528" value="1"/>
  <variable name="X(93,203,92)" index="6846381" value="1"/>
  <variable name="X(94,51,10140)" index="6868419" value="1"/>
  <variable name="X(94,52,10138)" index="6880407" value="1"/>
  <variable name="X(94,204,93)" index="6882352" value="1"/>
  <variable name="X(95,87,8370)" index="6902619" value="1"/>
  <variable name="X(95,88,9451)" index="6915690" value="1"/>
  <variable name="X(95,109,108)" index="6918337" value="1"/>
  <variable name="X(95,205,94)" index="6930313" value="1"/>
  <variable name="X(96,51,9375)" index="6951584" value="1"/>
  <variable name="X(96,87,86)" index="6954285" value="1"/>
  <variable name="X(96,206,95)" index="6966284" value="1"/>
  <variable name="X(97,58,10465)" index="6988644" value="1"/>
  <variable name="X(97,207,96)" index="6990265" value="1"/>
  <variable name="X(98,58,10574)" index="7012733" value="1"/>
  <variable name="X(98,208,97)" index="7014246" value="1"/>
  <variable name="X(99,64,10683)" index="7036822" value="1"/>
  <variable name="X(99,209,98)" index="7038227" value="1"/>
  <variable name="X(100,31,10792)" index="7060911" value="1"/>
  <variable name="X(100,210,99)" index="7062208" value="1"/>
  <variable name="X(101,31,10901)" index="7085000" value="1"/>
  <variable name="X(101,211,100)" index="7086189" value="1"/>
  <variable name="X(102,3,3273)" index="7101352" value="1"/>
  <variable name="X(102,4,3274)" index="7113343" value="1"/>
  <variable name="X(102,85,84)" index="7122143" value="1"/>
  <variable name="X(102,92,90)" index="7134139" value="1"/>
  <variable name="X(102,212,101)" index="7146140" value="1"/>
  <variable name="X(103,35,2)" index="7158031" value="1"/>
  <variable name="X(103,104,219)" index="7170238" value="1"/>
  <variable name="X(103,213,102)" index="7182111" value="1"/>
  <variable name="X(104,1,219)" index="7194218" value="1"/>
  <variable name="X(104,103,2)" index="7205991" value="1"/>
  <variable name="X(104,214,103)" index="7218082" value="1"/>
  <variable name="X(105,14,10)" index="7229979" value="1"/>
  <variable name="X(105,35,1091)" index="7243050" value="1"/>
  <variable name="X(105,215,104)" index="7254053" value="1"/>
  <variable name="X(106,14,231)" index="7266170" value="1"/>
  <variable name="X(106,107,106)" index="7278035" value="1"/>
  <variable name="X(106,216,105)" index="7290024" value="1"/>
  <variable name="X(107,12,1420)" index="7303329" value="1"/>
  <variable name="X(107,106,214)" index="7314113" value="1"/>
  <variable name="X(107,108,107)" index="7325996" value="1"/>
  <variable name="X(107,217,106)" index="7337985" value="1"/>
  <variable name="X(108,59,167)" index="7350036" value="1"/>
  <variable name="X(108,107,1196)" index="7363055" value="1"/>
  <variable name="X(108,218,107)" index="7373956" value="1"/>
  <variable name="X(109,95,11773)" index="7397612" value="1"/>
  <variable name="X(109,219,108)" index="7397937" value="1"/>
  <variable name="X(110,43,7236)" index="7417055" value="1"/>
  <variable name="X(110,67,3336)" index="7425145" value="1"/>
  <variable name="X(110,70,7263)" index="7441062" value="1"/>
  <variable name="X(110,220,109)" index="7445898" value="1"/>
 </variables>
</CPLEXSolution>
